/* Objective function */
min: +1.080 C1 +1.095 C2 +1.110 C3 +1.125 C4 +0 C5 +1000 C6 +1.110 C7 +1.125 C8 +1.140 C9 +0 C10 +1000 C11 +1000 C12 +1.1 C13 +1.115 C14 +0 C15 +1000 C16 +1000 C17 +1000 C18 +1.130 C19 +0 C20;

/* Constraints */
+C1 +C2 +C3 +C4 +C5 = 25;
+C6 +C7 +C8 +C9 +C10 = 35;
+C11 +C12 +C13 +C14 +C15 = 30;
+C16 +C17 +C18 +C19 +C20 = 10;
+C1 +C6 +C11 +C16 = 10;
+C2 +C7 +C12 +C17 = 15;
+C3 +C8 +C13 +C18 = 25;
+C4 +C9 +C14 +C19 = 20;
+C5 +C10 +C15 +C20 = 30;
